750
[75,77,79,80,81,82,84,85,86,87,88,89,91,93,95,96,98,100,104,107,111,112,114,116,118,120,121,126,127,128,130,137,138,139,140,141,142,143,144,145,146,147,149,150,151,152,153,155,156,157,159,162,163,164,166,167,169,171,172,174,175,177,180,183,184,185,186,188,191,192,193,195,198,199,201,202,203,204,205,206,208,212,213,216,217,218,219,221,223,224,225,226,228,229,230,231,232,233,234,235,236,237,239,240,242,244,245,246,250,251,252,254,255,256,257,258,259,262,264,265,266,267,268,270,273,274,278,279,280,281,283,284,288,290,291,292,294,298,299,301,304,306,307,308,309,310,311,312,315,316,317,318,319,322,324,325,331,332,334,335,339,340,341,343,345,349,350,352,353,354,358,359,360,361,364,366,367,369,371,372,373,374,376,377,378,379,381,382,383,384,387,388,389,390,391,393,394,395,396,398,399,400,401,402,403,404,408,409,411,412,415,416,417,420,422,424,425,426,429,430,433,435,439,440,441,442,443,447,448,450,452,454,456,457,459,461,462,464,467,468,470,471,472,473,475,476,478,479,480,481,482,483,484,485,486,487,488,489,490,493,494,497,500,501,504,505,506,508,510,511,512,513,515,516,517,518,519,521,523,525,526,527,528,529,530,531,532,534,536,537,539,540,541,542,545,552,553,554,555,556,557,559,560,562,563,565,566,568,570,571,573,574,575,577,579,580,582,588,590,591,593,594,596,597,598,600]
[2,1,1,2,1,2,2,2,1,1,1,1,1,2,1,1,2,2,1,2,2,3,1,2,2,2,1,1,3,1,1,1,1,1,1,1,1,1,2,1,3,2,1,3,1,3,1,1,2,2,1,1,1,1,2,3,3,2,1,1,1,1,1,1,1,1,1,1,1,3,1,2,1,3,4,1,1,2,4,4,3,1,1,1,1,2,1,1,1,1,1,1,1,1,2,2,1,1,1,1,1,2,1,1,1,2,1,1,1,3,1,2,1,1,4,2,1,1,1,1,2,1,3,1,1,1,2,1,1,1,1,1,1,2,1,2,3,3,1,1,3,4,1,3,2,1,1,1,2,2,2,1,1,3,1,1,1,1,1,1,1,1,4,1,1,1,1,1,2,1,1,1,2,1,3,1,2,3,1,1,1,4,2,1,2,2,1,1,1,1,1,1,2,1,1,3,1,1,2,1,1,2,1,3,2,1,1,2,2,4,1,1,2,1,1,4,2,2,2,1,1,2,1,1,2,3,2,2,2,1,3,1,1,1,1,3,1,1,2,2,2,1,2,2,2,2,1,2,2,1,1,1,2,1,1,2,1,3,1,2,1,2,2,1,1,1,2,1,1,1,3,1,1,2,1,1,1,3,1,1,1,1,2,2,2,1,1,1,1,2,1,2,1,4,2,2,1,1,1,1,1,1,1,1,2,1,1,1,1,2,1,1,3,1,1,1,1,1,1,1,4,1,3,2,1,1]
